2508 18175
29191 45011
44927 25753
38391 29379
4574 60720
45441 21826
50563 1903
18681 44188
20135 13197
18971 15343
14044 23883
5706 23267
5818 28150
33113 65078
64622 62412
63191 43081
47447 11752
55477 28714
30999 23584
30881 19610
28861 16252
4347 52639
33003 2370
37985 57736
22305 44135
33310 40230
26029 51063
18541 37833
32493 45834
188 28417
11392 61653
27813 2528
15834 42432
10343 27737
63596 17818
64219 60121
53728 27581
2574 46703
56451 43497
36988 9311
40527 49557
24167 33599
34817 202
62406 20140
37262 39237
36834 24538
55283 39378
57713 30087
2979 59184
50094 170
17347 25561
45916 50769
34773 52164
58983 4953
25662 12255
41632 52170
49213 42441
